103321
52,3,64,49,62,38,51,40,77,60,5,14,68,24,41,54,22,11,2,42,56,33,48,46,59,80,71,50,55,6,26,32,10,15,37,1,29,27,78,34,74,81,39,31,73,57,16,76,8,19,66,75,13,69,61,79,25,35,65,70,53,45,44,28,9,0,63,72,12,36,17,20,47,23,30,18,4,21,43,67,58,7,82
